n_res = 4;
rc = [ 21, 11, 12, 9 ];
n_tasks = 15;
d = [ 6, 6, 4, 1, 225, 125, 175, 200, 250, 75, 250, 4, 4, 9, 8 ];
rr = [| 6, 8, 7, 1, 7, 0, 0, 0, 1, 5, 5, 0, 0, 0, 1
      | 0, 0, 0, 0, 0, 7, 0, 0, 0, 0, 0, 0, 0, 0, 0
      | 0, 0, 0, 0, 0, 0, 4, 0, 0, 0, 0, 1, 5, 6, 0
      | 0, 0, 0, 0, 0, 0, 0, 7, 0, 0, 0, 0, 0, 0, 0 |];
suc = [ { 4, 9 },
       { 5, 6, 8 },
       { 7, 12 },
       { 6, 15 },
       { 13 },
       { 10 },
       { 10, 14 },
       { 9 },
       { 11 },
       { 11 },
       { 13 },
       { 13, 14 },
       {  },
       {  },
       {  } ];
